clasp version 2.1.1
Reading from stdin
Solving...
UNSATISFIABLE

Models      : 0     
Time        : 0.120s (Solving: 0.06s 1st Model: 0.00s Unsat: 0.06s)
CPU Time    : 0.210s
Choices     : 9483
Conflicts   : 8481
Restarts    : 10     (Average: 847.90 Last: 3391)

Atoms       : 7541  
Rules       : 25465  (1: 25090 2: 360 3: 15)
Bodies      : 14221 
Equivalences: 4280   (Atom=Atom: 429 Body=Body: 0 Other: 3851)
Tight       : Yes

Variables   : 19260  (Eliminated:    0 Frozen: 5760)
Constraints : 28710  (Binary: 42.3% Ternary: 56.4% Other:  1.3%)
Lemmas      : 8860   (Binary:  1.5% Ternary:  3.6% Other: 94.9%)
  Conflict  : 8476   (Average Length: 10.8) 
  Loop      : 0      (Average Length: 0.0) 
  Other     : 384    (Average Length: 2.6)
  Deleted   : 1748  

============ PARALLEL STATISTICS ============

Threads     : 3
Winner      : 2
Distributed : 1303   (Ratio: 0.15 Average LBD: 3.41) 
Integrated  : 2532   (Ratio: 1.94 Unit: 129 Average Jumps: 1.88)
Splits      : 0
Problems    : 3      (Average Length: 0.00) 

